# Random Circle Problem
param d := 0.05; 
param n := 10; 
param radius := 2.00; 
param v0 := 
1 4.92
2 5.10
3 5.38
4 5.32
5 5.93
6 5.77
7 5.07
8 5.75
9 5.46
10 5.38
;
param cap := 
1 2.77961
2 3.41275
3 4.29877
4 5.48100
5 5.42170
6 5.92646
7 0.74129
8 0.80839
9 1.84289
10 2.11046
;
param x0 := 
1 2.00
2 1.62
3 0.62
4 -0.62
5 -1.62
6 -2.00
7 -1.62
8 -0.62
9 0.62
10 1.62
;
param y0 := 
1 -0.00
2 1.18
3 1.90
4 1.90
5 1.18
6 0.00
7 -1.18
8 -1.90
9 -1.90
10 -1.18
;
